proyfinal/src/viki/013/experimentInOfficeAgust.take6.output/573e768d-e29e-4914-a3e8-78aaa0667623.als.dat
{'cnf.clauses': '118081',
 'cnf.totvars': '69608',
 'conflict literals': '11',
 'conflicts': '8',
 'decisions': '7373',
 'memused.mb': '17.41',
 'outcome': 'UNSAT',
 'propagations': '36297',
 'restarts': '1',
 'solver.msecs': 33,
 'task.msecs': 87}
