proyfinal/src/viki/013/experimentInOfficeAgust.take6.output/573e768d-e29e-4914-a3e8-78aaa0667623.als.out
Reading from standard input... Use '--help' for help.
============================[ Problem Statistics ]=============================
|                                                                             |
|  Number of variables:         69608                                         |
|  Number of clauses:          118081                                         |
|  Parse time:                   0.03 s                                       |
|                                                                             |
============================[ Search Statistics ]==============================
| Conflicts |          ORIGINAL         |          LEARNT          | Progress |
|           |    Vars  Clauses Literals |    Limit  Clauses Lit/Cl |          |
===============================================================================
===============================================================================
restarts              : 1
conflicts             : 8              (239 /sec)
decisions             : 7373           (0.00 % random) (220504 /sec)
propagations          : 36297          (1085534 /sec)
conflict literals     : 11             (0.00 % deleted)
Memory used           : 17.41 MB
CPU time              : 0.033437 s

UNSATISFIABLE
